Zn2 O2
1.0
   3.2373510235    0.0000000000    0.0000000000
  -1.6186755117    2.8036282273    0.0000000000
   0.0000000000    0.0000000000    5.2220613000
Zn O
2 2
direct
   0.6666666667    0.3333333333    0.5005917000 Zn
   0.3333333333    0.6666666667    0.0005917000 Zn
   0.6666666667    0.3333333333    0.8797183000 O
   0.3333333333    0.6666666667    0.3797183000 O
