Ba1 Hg1 O2                              
    1.000000000000000     
     2.0798712664047767    1.2008142355463598    6.5206476280048431
    -2.0798712664047767    1.2008142355463598    6.5206476280048431
     0.0000000000000000   -2.4016284710927196    6.5206476280048431
   Ba   Hg   O 
     1     1     2
Direct
  0.5000000000000000  0.5000000000000000  0.5000000000000000
 -0.0000000000000000 -0.0000000000000000 -0.0000000000000000
  0.8990718788602352  0.8990718788602352  0.8990718788602352
  0.1009281211397648  0.1009281211397648  0.1009281211397648
 
  0.00000000E+00  0.00000000E+00  0.00000000E+00
  0.00000000E+00  0.00000000E+00  0.00000000E+00
  0.00000000E+00  0.00000000E+00  0.00000000E+00
  0.00000000E+00  0.00000000E+00  0.00000000E+00
