Ba1 Hg1 O2
1.0
   2.0800991377    1.2009457971    6.5028489148
  -2.0800991377    1.2009457971    6.5028489148
   0.0000000000   -2.4018915942    6.5028489148
Ba Hg O
1 1 2
direct
   0.5000000000    0.5000000000    0.5000000000 Ba
  -0.0000000000    0.0000000000    0.0000000000 Hg
   0.8983890500    0.8983890500    0.8983890500 O
   0.1016109500    0.1016109500    0.1016109500 O
