Num irrep kpoints: 12
0
Gamma
5 5 4
0.0 0.0 0.5
