Ca1 Cd1 O2                              
    1.000000000000000     
     3.3665557583585835    0.0000000000000000   -0.0000000000000000
     0.0000000000000000    3.3665557583585835    0.0000000000000000
     0.0000000000000000    0.0000000000000000    4.7434318299857097
   Ca   Cd   O 
     1     1     2
Direct
  0.5000000000000000  0.5000000000000000  0.5000000000000000
 -0.0000000000000000  0.0000000000000000  0.0000000000000000
  0.5000000000000000  0.5000000000000000  0.0000000000000000
  0.0000000000000000  0.0000000000000000  0.5000000000000000
 
  0.00000000E+00  0.00000000E+00  0.00000000E+00
  0.00000000E+00  0.00000000E+00  0.00000000E+00
  0.00000000E+00  0.00000000E+00  0.00000000E+00
  0.00000000E+00  0.00000000E+00  0.00000000E+00
