Ca1 Cd1 O2
1.0
   3.3680642067    0.0000000000    0.0000000000
   0.0000000000    3.3680642067    0.0000000000
   0.0000000000    0.0000000000    4.7502443000
Ca Cd O
1 1 2
direct
   0.5000000000    0.5000000000    0.5000000000 Ca
   0.0000000000    0.0000000000    0.0000000000 Cd
   0.5000000000    0.5000000000    0.0000000000 O
   0.0000000000    0.0000000000    0.5000000000 O
