Zn4 Pt2 O8
1.0
  -2.9431676817    3.0713341299    4.3447409092
   2.9431676817   -3.0713341299    4.3447409092
   2.9431676817    3.0713341299   -4.3447409092
Zn Pt O
4 2 8
direct
   0.1011316800    0.8511316800    0.2500000000 Zn
   0.8988683200    0.1488683200    0.7500000000 Zn
   0.5000000000    0.0000000000    0.0000000000 Zn
   0.5000000000    0.5000000000    0.5000000000 Zn
   0.5000000000    0.5000000000    0.0000000000 Pt
   0.0000000000    0.5000000000    0.5000000000 Pt
   0.2852222700    0.2668827400    0.0183395300 O
   0.7485432100    0.2668827400    0.4816604700 O
   0.7511337850    0.2732409100    0.0221071250 O
   0.7511337850    0.7290266600    0.4778928750 O
   0.2488662150    0.2709733400    0.5221071250 O
   0.2514567900    0.7331172600    0.5183395300 O
   0.2488662150    0.7267590900    0.9778928750 O
   0.7147777300    0.7331172600    0.9816604700 O
