Zn4 Pt2 O8                              
    1.000000000000000     
    -2.9576774291892356    3.0596040730243996    4.3535659516352005
     2.9576774291892356   -3.0596040730243996    4.3535659516352005
     2.9576774291892356    3.0596040730243996   -4.3535659516352005
   Zn   Pt   O 
     4     2     8
Direct
  0.1019578962627530  0.8519578962627530  0.2500000000000000
  0.8980421037372470  0.1480421037372469  0.7500000000000000
  0.5000000000000000 -0.0000000000000000  0.0000000000000000
  0.5000000000000000  0.5000000000000000  0.5000000000000000
  0.5000000000000000  0.5000000000000000  0.0000000000000000
 -0.0000000000000000  0.5000000000000000  0.5000000000000000
  0.2871764670218229  0.2693713694308607  0.0178050975909622
  0.7515662718398983  0.2693713694308607  0.4821949024090377
  0.7514120815726698  0.2776477613989562  0.0262356798262863
  0.7514120815726698  0.7251764017463835  0.4737643201737137
  0.2485879184273301  0.2748235982536165  0.5262356798262864
  0.2484337281601015  0.7306286305691394  0.5178050975909623
  0.2485879184273301  0.7223522386010437  0.9737643201737136
  0.7128235329781770  0.7306286305691394  0.9821949024090377
 
  0.00000000E+00  0.00000000E+00  0.00000000E+00
  0.00000000E+00  0.00000000E+00  0.00000000E+00
  0.00000000E+00  0.00000000E+00  0.00000000E+00
  0.00000000E+00  0.00000000E+00  0.00000000E+00
  0.00000000E+00  0.00000000E+00  0.00000000E+00
  0.00000000E+00  0.00000000E+00  0.00000000E+00
  0.00000000E+00  0.00000000E+00  0.00000000E+00
  0.00000000E+00  0.00000000E+00  0.00000000E+00
  0.00000000E+00  0.00000000E+00  0.00000000E+00
  0.00000000E+00  0.00000000E+00  0.00000000E+00
  0.00000000E+00  0.00000000E+00  0.00000000E+00
  0.00000000E+00  0.00000000E+00  0.00000000E+00
  0.00000000E+00  0.00000000E+00  0.00000000E+00
  0.00000000E+00  0.00000000E+00  0.00000000E+00
