Ca16 Cd16 O32                           
    1.000000000000000     
     9.5205800314879507   -0.0039788215002772    0.0045613090851531
    -0.0039790306307392    9.5127628953854977   -0.0099299890945749
     0.0045623632997386   -0.0099341966033373    9.5011877671138762
   Ca   Cd   O 
    16    16    32
Direct
  0.5014770466681213  0.9998254353276579  0.9952490009968287
  0.9992580394038200  0.9982868138555503  0.9969335077101036
  0.4969522465933238  0.0010727105627168  0.5036028701636681
  0.0019597832157956  0.9995653686384500  0.5021762552392772
  0.0031169897978884  0.5000761148405743  0.5018901029648646
  0.2520726093194767  0.2529555835356874  0.9982389914398624
  0.7475445887690100  0.2508157441026242  0.5006958443620135
  0.7486970926243970  0.7499204570071143  0.5032981679618587
  0.7470757170148303  0.5018220247480514  0.7548298009322636
  0.2502049462069351  0.0011296938730396  0.2501840589476174
  0.7497360618333317  0.0013733615547906  0.2482280590989063
  0.2518460286814133  0.4981876217799481  0.2503915415065734
  0.7493864004341120  0.4969721230612762  0.2468922129053865
  0.4989833797367709  0.7477329936408452  0.2485973544026976
  0.0008276343622811  0.7480196487316348  0.2476024247562876
  0.0010281177278344  0.2508166799892351  0.7513543101625118
  0.4998758770965566  0.5001319717336017  0.9994366595229067
  0.0004912297044086  0.4999351335454136  0.0001470396907663
  0.5004683978495379  0.4999613555936619  0.5006640401106850
  0.7502271762316042  0.2500130417174731  0.9997367235175716
  0.2501071130050860  0.7500227375957564  0.9987516719781766
  0.7498266138799039  0.7498443143799065  0.0005014053441741
  0.2501605535950375  0.2508053033652118  0.5005907866960086
  0.2499882023204449  0.7499197815435465  0.5005960139434933
  0.2499909542911496  0.9996492069642997  0.7502523735748383
  0.7497929747276189  0.0002339847176529  0.7492682077335857
  0.2508311672969228  0.5018872072044473  0.7499566477277142
  0.4999101398329842  0.2487079207894212  0.2496296479061613
  0.0002714264469219  0.2488962572326372  0.2502483761482779
  0.4994427723666064  0.2513069586049141  0.7498080374920235
  0.4981796920748067  0.7497784780425150  0.7501827966464134
  0.0005928066338967  0.7495895798999612  0.7501472693484317
  0.2504426304675675  0.0021751313367986  0.0001622219341186
  0.7501910267342211  0.9996613101773235  0.9991193196581278
  0.2506030270869530  0.5009896134594314  0.9993430952718541
  0.7497385732800836  0.5002415463445971  0.0002857900143169
  0.2498458881982728  0.9999230863891029  0.5001783042035299
  0.7491038914579704  0.0005083670460948  0.4985927609330858
  0.2512953416841697  0.5007399611967500  0.5007825602370275
  0.7521765410977039  0.5001223515236717  0.5016748083719165
  0.2506899308750619  0.2500328806889200  0.2490841279952818
  0.7495215394149710  0.2493409666672335  0.2502180172608561
  0.2501634596366245  0.7493198687487279  0.2494892728802540
  0.7496034275218832  0.7492613996161168  0.2515153983783378
  0.2505919771577325  0.2501228835390990  0.7496790677276550
  0.7500631227375152  0.2513238022131148  0.7501916889000810
  0.2498869575619054  0.7513247052709815  0.7498405616291919
  0.7488655555559589  0.7509058655539960  0.7521012760688208
  0.0002379045449672  0.9972321879009982  0.2491383014510333
  0.4996868360736144  0.9975895404711537  0.2492632896550120
  0.0010677426678285  0.4998568781874155  0.2512932273552906
  0.5000503883181295  0.4990548933126888  0.2493454636898420
  0.0003547427748103  0.0011495088662556  0.7500002511681174
  0.4994479327611856  0.0009269275829951  0.7496139719081469
  0.9992044420172377  0.4994037096277140  0.7505292795682763
  0.4984809661726644  0.5002300864449793  0.7506840363893232
  0.0015512038452101  0.2495394414050907  0.9995821654579231
  0.5007217151922561  0.2509362932937123  0.9994571830349557
  0.0002296420570502  0.7488876487827199  0.9985347582548698
  0.4996941743811902  0.7491551286079670  0.9984921360219658
  0.9986694853772988  0.2502178724181476  0.5021290132208875
  0.4989167975476931  0.2508387468205129  0.5000133994187834
  0.9989692230521428  0.7494432702740781  0.4992622434956147
  0.4996101330053193  0.7502885180519883  0.5003208075135461
 
  0.00000000E+00  0.00000000E+00  0.00000000E+00
  0.00000000E+00  0.00000000E+00  0.00000000E+00
  0.00000000E+00  0.00000000E+00  0.00000000E+00
  0.00000000E+00  0.00000000E+00  0.00000000E+00
  0.00000000E+00  0.00000000E+00  0.00000000E+00
  0.00000000E+00  0.00000000E+00  0.00000000E+00
  0.00000000E+00  0.00000000E+00  0.00000000E+00
  0.00000000E+00  0.00000000E+00  0.00000000E+00
  0.00000000E+00  0.00000000E+00  0.00000000E+00
  0.00000000E+00  0.00000000E+00  0.00000000E+00
  0.00000000E+00  0.00000000E+00  0.00000000E+00
  0.00000000E+00  0.00000000E+00  0.00000000E+00
  0.00000000E+00  0.00000000E+00  0.00000000E+00
  0.00000000E+00  0.00000000E+00  0.00000000E+00
  0.00000000E+00  0.00000000E+00  0.00000000E+00
  0.00000000E+00  0.00000000E+00  0.00000000E+00
  0.00000000E+00  0.00000000E+00  0.00000000E+00
  0.00000000E+00  0.00000000E+00  0.00000000E+00
  0.00000000E+00  0.00000000E+00  0.00000000E+00
  0.00000000E+00  0.00000000E+00  0.00000000E+00
  0.00000000E+00  0.00000000E+00  0.00000000E+00
  0.00000000E+00  0.00000000E+00  0.00000000E+00
  0.00000000E+00  0.00000000E+00  0.00000000E+00
  0.00000000E+00  0.00000000E+00  0.00000000E+00
  0.00000000E+00  0.00000000E+00  0.00000000E+00
  0.00000000E+00  0.00000000E+00  0.00000000E+00
  0.00000000E+00  0.00000000E+00  0.00000000E+00
  0.00000000E+00  0.00000000E+00  0.00000000E+00
  0.00000000E+00  0.00000000E+00  0.00000000E+00
  0.00000000E+00  0.00000000E+00  0.00000000E+00
  0.00000000E+00  0.00000000E+00  0.00000000E+00
  0.00000000E+00  0.00000000E+00  0.00000000E+00
  0.00000000E+00  0.00000000E+00  0.00000000E+00
  0.00000000E+00  0.00000000E+00  0.00000000E+00
  0.00000000E+00  0.00000000E+00  0.00000000E+00
  0.00000000E+00  0.00000000E+00  0.00000000E+00
  0.00000000E+00  0.00000000E+00  0.00000000E+00
  0.00000000E+00  0.00000000E+00  0.00000000E+00
  0.00000000E+00  0.00000000E+00  0.00000000E+00
  0.00000000E+00  0.00000000E+00  0.00000000E+00
  0.00000000E+00  0.00000000E+00  0.00000000E+00
  0.00000000E+00  0.00000000E+00  0.00000000E+00
  0.00000000E+00  0.00000000E+00  0.00000000E+00
  0.00000000E+00  0.00000000E+00  0.00000000E+00
  0.00000000E+00  0.00000000E+00  0.00000000E+00
  0.00000000E+00  0.00000000E+00  0.00000000E+00
  0.00000000E+00  0.00000000E+00  0.00000000E+00
  0.00000000E+00  0.00000000E+00  0.00000000E+00
  0.00000000E+00  0.00000000E+00  0.00000000E+00
  0.00000000E+00  0.00000000E+00  0.00000000E+00
  0.00000000E+00  0.00000000E+00  0.00000000E+00
  0.00000000E+00  0.00000000E+00  0.00000000E+00
  0.00000000E+00  0.00000000E+00  0.00000000E+00
  0.00000000E+00  0.00000000E+00  0.00000000E+00
  0.00000000E+00  0.00000000E+00  0.00000000E+00
  0.00000000E+00  0.00000000E+00  0.00000000E+00
  0.00000000E+00  0.00000000E+00  0.00000000E+00
  0.00000000E+00  0.00000000E+00  0.00000000E+00
  0.00000000E+00  0.00000000E+00  0.00000000E+00
  0.00000000E+00  0.00000000E+00  0.00000000E+00
  0.00000000E+00  0.00000000E+00  0.00000000E+00
  0.00000000E+00  0.00000000E+00  0.00000000E+00
  0.00000000E+00  0.00000000E+00  0.00000000E+00
  0.00000000E+00  0.00000000E+00  0.00000000E+00
