Zn2 O2                                  
    1.000000000000000     
     3.2591708000199260    0.0000000000003902    0.0000000000000000
    -1.6295853999592878    2.8225247080705844    0.0000000000000000
     0.0000000000000000    0.0000000000000000    5.2359331044155031
   Zn   O 
     2     2
Direct
  0.6666666667000030  0.3333333332999970  0.4998893102773323
  0.3333333332999970  0.6666666667000030  0.9998893102773323
  0.6666666667000030  0.3333333332999970  0.8804206897226692
  0.3333333332999970  0.6666666667000030  0.3804206897226692
 
  0.00000000E+00  0.00000000E+00  0.00000000E+00
  0.00000000E+00  0.00000000E+00  0.00000000E+00
  0.00000000E+00  0.00000000E+00  0.00000000E+00
  0.00000000E+00  0.00000000E+00  0.00000000E+00
