POSCAR
1.0
  9.4898000000  0.0000000000  0.0000000000
  0.0000000000  9.4898000000  0.0000000000
  0.0000000000  0.0000000000  9.4898000000
  Ca Cd O
  16 16 32
Direct
  0.5000000000  1.0000000000  1.0000000000
  1.0000000000  1.0000000000  1.0000000000
  0.5000000000  1.0000000000  0.5000000000
  1.0000000000  1.0000000000  0.5000000000
  1.0000000000  0.5000000000  0.5000000000
  0.2500000000  0.2500000000  1.0000000000
  0.7500000000  0.2500000000  0.5000000000
  0.7500000000  0.7500000000  0.5000000000
  0.7500000000  0.5000000000  0.7500000000
  0.2500000000  1.0000000000  0.2500000000
  0.7500000000  1.0000000000  0.2500000000
  0.2500000000  0.5000000000  0.2500000000
  0.7500000000  0.5000000000  0.2500000000
  0.5000000000  0.7500000000  0.2500000000
  1.0000000000  0.7500000000  0.2500000000
  1.0000000000  0.2500000000  0.7500000000
  0.5000000000  0.5000000000  1.0000000000
  1.0000000000  0.5000000000  1.0000000000
  0.5000000000  0.5000000000  0.5000000000
  0.7500000000  0.2500000000  1.0000000000
  0.2500000000  0.7500000000  1.0000000000
  0.7500000000  0.7500000000  1.0000000000
  0.2500000000  0.2500000000  0.5000000000
  0.2500000000  0.7500000000  0.5000000000
  0.2500000000  1.0000000000  0.7500000000
  0.7500000000  1.0000000000  0.7500000000
  0.2500000000  0.5000000000  0.7500000000
  0.5000000000  0.2500000000  0.2500000000
  1.0000000000  0.2500000000  0.2500000000
  0.5000000000  0.2500000000  0.7500000000
  0.5000000000  0.7500000000  0.7500000000
  1.0000000000  0.7500000000  0.7500000000
  0.2500000000  1.0000000000  1.0000000000
  0.7500000000  1.0000000000  1.0000000000
  0.2500000000  0.5000000000  1.0000000000
  0.7500000000  0.5000000000  1.0000000000
  0.2500000000  1.0000000000  0.5000000000
  0.7500000000  1.0000000000  0.5000000000
  0.2500000000  0.5000000000  0.5000000000
  0.7500000000  0.5000000000  0.5000000000
  0.2500000000  0.2500000000  0.2500000000
  0.7500000000  0.2500000000  0.2500000000
  0.2500000000  0.7500000000  0.2500000000
  0.7500000000  0.7500000000  0.2500000000
  0.2500000000  0.2500000000  0.7500000000
  0.7500000000  0.2500000000  0.7500000000
  0.2500000000  0.7500000000  0.7500000000
  0.7500000000  0.7500000000  0.7500000000
  1.0000000000  1.0000000000  0.2500000000
  0.5000000000  1.0000000000  0.2500000000
  1.0000000000  0.5000000000  0.2500000000
  0.5000000000  0.5000000000  0.2500000000
  1.0000000000  1.0000000000  0.7500000000
  0.5000000000  1.0000000000  0.7500000000
  1.0000000000  0.5000000000  0.7500000000
  0.5000000000  0.5000000000  0.7500000000
  1.0000000000  0.2500000000  1.0000000000
  0.5000000000  0.2500000000  1.0000000000
  1.0000000000  0.7500000000  1.0000000000
  0.5000000000  0.7500000000  1.0000000000
  1.0000000000  0.2500000000  0.5000000000
  0.5000000000  0.2500000000  0.5000000000
  1.0000000000  0.7500000000  0.5000000000
  0.5000000000  0.7500000000  0.5000000000