Ca16 Cd16 O32                           
    1.000000000000000     
     9.5205800314879507   -0.0039788215002772    0.0045613090851531
    -0.0039790306307392    9.5127628953854977   -0.0099299890945749
     0.0045623632997386   -0.0099341966033373    9.5011877671138762
   Ca   Cd   O 
    16    16    32
Direct
  0.5014770466681212 -0.0001745646723430 -0.0047509990031680
 -0.0007419605961806 -0.0017131861444509 -0.0030664922898971
  0.4969522465933243  0.0010727105627148  0.5036028701636671
  0.0019597832157948 -0.0004346313615487  0.5021762552392751
  0.0031169897978863  0.5000761148405739  0.5018901029648623
  0.2520726093194792  0.2529555835356891 -0.0017610085601398
  0.7475445887690095  0.2508157441026239  0.5006958443620166
  0.7486970926243955  0.7499204570071170  0.5032981679618599
  0.7470757170148328  0.5018220247480479  0.7548298009322659
  0.2502049462069325  0.0011296938730377  0.2501840589476154
  0.7497360618333283  0.0013733615547925  0.2482280590989086
  0.2518460286814138  0.4981876217799492  0.2503915415065749
  0.7493864004341151  0.4969721230612756  0.2468922129053870
  0.4989833797367700  0.7477329936408456  0.2485973544026977
  0.0008276343622795  0.7480196487316326  0.2476024247562884
  0.0010281177278358  0.2508166799892347  0.7513543101625103
  0.4998758770965534  0.5001319717336039 -0.0005633404770904
  0.0004912297044093  0.4999351335454170  0.0001470396907657
  0.5004683978495350  0.4999613555936609  0.5006640401106879
  0.7502271762316027  0.2500130417174716 -0.0002632764824282
  0.2501071130050886  0.7500227375957575 -0.0012483280218229
  0.7498266138799062  0.7498443143799084  0.0005014053441743
  0.2501605535950348  0.2508053033652123  0.5005907866960089
  0.2499882023204420  0.7499197815435477  0.5005960139434922
  0.2499909542911518 -0.0003507930357002  0.7502523735748367
  0.7497929747276210  0.0002339847176510  0.7492682077335853
  0.2508311672969198  0.5018872072044446  0.7499566477277151
  0.4999101398329833  0.2487079207894228  0.2496296479061631
  0.0002714264469203  0.2488962572326369  0.2502483761482744
  0.4994427723666059  0.2513069586049128  0.7498080374920209
  0.4981796920748058  0.7497784780425173  0.7501827966464100
  0.0005928066338990  0.7495895798999640  0.7501472693484320
  0.2504426304675683  0.0021751313368005  0.0001622219341180
  0.7501910267342194 -0.0003386898226756 -0.0008806803418697
  0.2506030270869503  0.5009896134594337 -0.0006569047281448
  0.7497385732800852  0.5002415463446004  0.0002857900143173
  0.2498458881982722 -0.0000769136108958  0.5001783042035274
  0.7491038914579692  0.0005083670460968  0.4985927609330875
  0.2512953416841677  0.5007399611967527  0.5007825602370304
  0.7521765410977015  0.5001223515236731  0.5016748083719137
  0.2506899308750595  0.2500328806889177  0.2490841279952810
  0.7495215394149708  0.2493409666672336  0.2502180172608536
  0.2501634596366250  0.7493198687487276  0.2494892728802520
  0.7496034275218825  0.7492613996161134  0.2515153983783412
  0.2505919771577337  0.2501228835390956  0.7496790677276540
  0.7500631227375177  0.2513238022131157  0.7501916889000844
  0.2498869575619087  0.7513247052709823  0.7498405616291900
  0.7488655555559561  0.7509058655539957  0.7521012760688217
  0.0002379045449691 -0.0027678120989984  0.2491383014510314
  0.4996868360736154 -0.0024104595288480  0.2492632896550119
  0.0010677426678285  0.4998568781874177  0.2512932273552891
  0.5000503883181319  0.4990548933126856  0.2493454636898449
  0.0003547427748082  0.0011495088662537  0.7500002511681193
  0.4994479327611839  0.0009269275829939  0.7496139719081482
 -0.0007955579827642  0.4994037096277112  0.7505292795682731
  0.4984809661726612  0.5002300864449764  0.7506840363893266
  0.0015512038452129  0.2495394414050939 -0.0004178345420751
  0.5007217151922551  0.2509362932937132 -0.0005428169650420
  0.0002296420570495  0.7488876487827231 -0.0014652417451337
  0.4996941743811933  0.7491551286079655 -0.0015078639780361
 -0.0013305146227035  0.2502178724181486  0.5021290132208892
  0.4989167975476932  0.2508387468205124  0.5000133994187848
 -0.0010307769478601  0.7494432702740770  0.4992622434956133
  0.4996101330053213  0.7502885180519857  0.5003208075135478
 
  0.00000000E+00  0.00000000E+00  0.00000000E+00
  0.00000000E+00  0.00000000E+00  0.00000000E+00
  0.00000000E+00  0.00000000E+00  0.00000000E+00
  0.00000000E+00  0.00000000E+00  0.00000000E+00
  0.00000000E+00  0.00000000E+00  0.00000000E+00
  0.00000000E+00  0.00000000E+00  0.00000000E+00
  0.00000000E+00  0.00000000E+00  0.00000000E+00
  0.00000000E+00  0.00000000E+00  0.00000000E+00
  0.00000000E+00  0.00000000E+00  0.00000000E+00
  0.00000000E+00  0.00000000E+00  0.00000000E+00
  0.00000000E+00  0.00000000E+00  0.00000000E+00
  0.00000000E+00  0.00000000E+00  0.00000000E+00
  0.00000000E+00  0.00000000E+00  0.00000000E+00
  0.00000000E+00  0.00000000E+00  0.00000000E+00
  0.00000000E+00  0.00000000E+00  0.00000000E+00
  0.00000000E+00  0.00000000E+00  0.00000000E+00
  0.00000000E+00  0.00000000E+00  0.00000000E+00
  0.00000000E+00  0.00000000E+00  0.00000000E+00
  0.00000000E+00  0.00000000E+00  0.00000000E+00
  0.00000000E+00  0.00000000E+00  0.00000000E+00
  0.00000000E+00  0.00000000E+00  0.00000000E+00
  0.00000000E+00  0.00000000E+00  0.00000000E+00
  0.00000000E+00  0.00000000E+00  0.00000000E+00
  0.00000000E+00  0.00000000E+00  0.00000000E+00
  0.00000000E+00  0.00000000E+00  0.00000000E+00
  0.00000000E+00  0.00000000E+00  0.00000000E+00
  0.00000000E+00  0.00000000E+00  0.00000000E+00
  0.00000000E+00  0.00000000E+00  0.00000000E+00
  0.00000000E+00  0.00000000E+00  0.00000000E+00
  0.00000000E+00  0.00000000E+00  0.00000000E+00
  0.00000000E+00  0.00000000E+00  0.00000000E+00
  0.00000000E+00  0.00000000E+00  0.00000000E+00
  0.00000000E+00  0.00000000E+00  0.00000000E+00
  0.00000000E+00  0.00000000E+00  0.00000000E+00
  0.00000000E+00  0.00000000E+00  0.00000000E+00
  0.00000000E+00  0.00000000E+00  0.00000000E+00
  0.00000000E+00  0.00000000E+00  0.00000000E+00
  0.00000000E+00  0.00000000E+00  0.00000000E+00
  0.00000000E+00  0.00000000E+00  0.00000000E+00
  0.00000000E+00  0.00000000E+00  0.00000000E+00
  0.00000000E+00  0.00000000E+00  0.00000000E+00
  0.00000000E+00  0.00000000E+00  0.00000000E+00
  0.00000000E+00  0.00000000E+00  0.00000000E+00
  0.00000000E+00  0.00000000E+00  0.00000000E+00
  0.00000000E+00  0.00000000E+00  0.00000000E+00
  0.00000000E+00  0.00000000E+00  0.00000000E+00
  0.00000000E+00  0.00000000E+00  0.00000000E+00
  0.00000000E+00  0.00000000E+00  0.00000000E+00
  0.00000000E+00  0.00000000E+00  0.00000000E+00
  0.00000000E+00  0.00000000E+00  0.00000000E+00
  0.00000000E+00  0.00000000E+00  0.00000000E+00
  0.00000000E+00  0.00000000E+00  0.00000000E+00
  0.00000000E+00  0.00000000E+00  0.00000000E+00
  0.00000000E+00  0.00000000E+00  0.00000000E+00
  0.00000000E+00  0.00000000E+00  0.00000000E+00
  0.00000000E+00  0.00000000E+00  0.00000000E+00
  0.00000000E+00  0.00000000E+00  0.00000000E+00
  0.00000000E+00  0.00000000E+00  0.00000000E+00
  0.00000000E+00  0.00000000E+00  0.00000000E+00
  0.00000000E+00  0.00000000E+00  0.00000000E+00
  0.00000000E+00  0.00000000E+00  0.00000000E+00
  0.00000000E+00  0.00000000E+00  0.00000000E+00
  0.00000000E+00  0.00000000E+00  0.00000000E+00
  0.00000000E+00  0.00000000E+00  0.00000000E+00
