Ca16 Cd16 O32
1.0
   9.4898000000    0.0000000000    0.0000000000
   0.0000000000    9.4898000000    0.0000000000
   0.0000000000    0.0000000000    9.4898000000
Ca Cd O
16 16 32
direct
   0.5000000000    0.0000000000    0.0000000000 Ca
   0.0000000000    0.0000000000    0.0000000000 Ca
   0.5000000000    0.0000000000    0.5000000000 Ca
   0.0000000000    0.0000000000    0.5000000000 Ca
   0.0000000000    0.5000000000    0.5000000000 Ca
   0.2500000000    0.2500000000    0.0000000000 Ca
   0.7500000000    0.2500000000    0.5000000000 Ca
   0.7500000000    0.7500000000    0.5000000000 Ca
   0.7500000000    0.5000000000    0.7500000000 Ca
   0.2500000000    0.0000000000    0.2500000000 Ca
   0.7500000000    0.0000000000    0.2500000000 Ca
   0.2500000000    0.5000000000    0.2500000000 Ca
   0.7500000000    0.5000000000    0.2500000000 Ca
   0.5000000000    0.7500000000    0.2500000000 Ca
   0.0000000000    0.7500000000    0.2500000000 Ca
   0.0000000000    0.2500000000    0.7500000000 Ca
   0.5000000000    0.5000000000    0.0000000000 Cd
   0.0000000000    0.5000000000    0.0000000000 Cd
   0.5000000000    0.5000000000    0.5000000000 Cd
   0.7500000000    0.2500000000    0.0000000000 Cd
   0.2500000000    0.7500000000    0.0000000000 Cd
   0.7500000000    0.7500000000    0.0000000000 Cd
   0.2500000000    0.2500000000    0.5000000000 Cd
   0.2500000000    0.7500000000    0.5000000000 Cd
   0.2500000000    0.0000000000    0.7500000000 Cd
   0.7500000000    0.0000000000    0.7500000000 Cd
   0.2500000000    0.5000000000    0.7500000000 Cd
   0.5000000000    0.2500000000    0.2500000000 Cd
   0.0000000000    0.2500000000    0.2500000000 Cd
   0.5000000000    0.2500000000    0.7500000000 Cd
   0.5000000000    0.7500000000    0.7500000000 Cd
   0.0000000000    0.7500000000    0.7500000000 Cd
   0.2500000000    0.0000000000    0.0000000000 O
   0.7500000000    0.0000000000    0.0000000000 O
   0.2500000000    0.5000000000    0.0000000000 O
   0.7500000000    0.5000000000    0.0000000000 O
   0.2500000000    0.0000000000    0.5000000000 O
   0.7500000000    0.0000000000    0.5000000000 O
   0.2500000000    0.5000000000    0.5000000000 O
   0.7500000000    0.5000000000    0.5000000000 O
   0.2500000000    0.2500000000    0.2500000000 O
   0.7500000000    0.2500000000    0.2500000000 O
   0.2500000000    0.7500000000    0.2500000000 O
   0.7500000000    0.7500000000    0.2500000000 O
   0.2500000000    0.2500000000    0.7500000000 O
   0.7500000000    0.2500000000    0.7500000000 O
   0.2500000000    0.7500000000    0.7500000000 O
   0.7500000000    0.7500000000    0.7500000000 O
   0.0000000000    0.0000000000    0.2500000000 O
   0.5000000000    0.0000000000    0.2500000000 O
   0.0000000000    0.5000000000    0.2500000000 O
   0.5000000000    0.5000000000    0.2500000000 O
   0.0000000000    0.0000000000    0.7500000000 O
   0.5000000000    0.0000000000    0.7500000000 O
   0.0000000000    0.5000000000    0.7500000000 O
   0.5000000000    0.5000000000    0.7500000000 O
   0.0000000000    0.2500000000    0.0000000000 O
   0.5000000000    0.2500000000    0.0000000000 O
   0.0000000000    0.7500000000    0.0000000000 O
   0.5000000000    0.7500000000    0.0000000000 O
   0.0000000000    0.2500000000    0.5000000000 O
   0.5000000000    0.2500000000    0.5000000000 O
   0.0000000000    0.7500000000    0.5000000000 O
   0.5000000000    0.7500000000    0.5000000000 O
