Zn4 Pt2 O8                              
    1.000000000000000     
    -2.9576774291892356    3.0596040730243996    4.3535659516352005
     2.9576774291892356   -3.0596040730243996    4.3535659516352005
     2.9576774291892356    3.0596040730243996   -4.3535659516352005
   Zn   Pt   O 
     4     2     8
Direct
  0.1019578962627534  0.8519578962627534  0.2500000000000000
  0.8980421037372466  0.1480421037372466  0.7500000000000000
  0.5000000000000000  0.0000000000000000  0.0000000000000000
  0.5000000000000000  0.5000000000000000  0.5000000000000000
  0.5000000000000000  0.5000000000000000  0.0000000000000000
  0.0000000000000000  0.5000000000000000  0.5000000000000000
  0.2871764670218226  0.2693713694308641  0.0178050975909656
  0.7515662718398985  0.2693713694308641  0.4821949024090344
  0.7514120815726670  0.2776477613989528  0.0262356798262857
  0.7514120815726670  0.7251764017463813  0.4737643201737143
  0.2485879184273330  0.2748235982536187  0.5262356798262857
  0.2484337281601015  0.7306286305691430  0.5178050975909656
  0.2485879184273330  0.7223522386010472  0.9737643201737143
  0.7128235329781774  0.7306286305691430  0.9821949024090344
 
  0.00000000E+00  0.00000000E+00  0.00000000E+00
  0.00000000E+00  0.00000000E+00  0.00000000E+00
  0.00000000E+00  0.00000000E+00  0.00000000E+00
  0.00000000E+00  0.00000000E+00  0.00000000E+00
  0.00000000E+00  0.00000000E+00  0.00000000E+00
  0.00000000E+00  0.00000000E+00  0.00000000E+00
  0.00000000E+00  0.00000000E+00  0.00000000E+00
  0.00000000E+00  0.00000000E+00  0.00000000E+00
  0.00000000E+00  0.00000000E+00  0.00000000E+00
  0.00000000E+00  0.00000000E+00  0.00000000E+00
  0.00000000E+00  0.00000000E+00  0.00000000E+00
  0.00000000E+00  0.00000000E+00  0.00000000E+00
  0.00000000E+00  0.00000000E+00  0.00000000E+00
  0.00000000E+00  0.00000000E+00  0.00000000E+00
