Cr2 Cd2 O8                              
    1.000000000000000     
     2.8385682039350404   -4.4221620647619853    0.0000000000000000
     2.8385682039350404    4.4221620647619853   -0.0000000000000000
     0.0000000000000000    0.0000000000000000    7.0706723224701298
   Cr   Cd   O 
     2     2     8
Direct
  0.6422604229709921  0.3577395770290082  0.2500000000000000
  0.3577395770290082  0.6422604229709921  0.7500000000000000
 -0.0000000000000000  0.0000000000000000  0.5000000000000000
 -0.0000000000000000  0.0000000000000000  0.0000000000000000
  0.7082939114664988  0.7769485664655835  0.7500000000000000
  0.2917060885335014  0.2230514335344164  0.2500000000000000
  0.7769485664655835  0.7082939114664988  0.2500000000000000
  0.2230514335344164  0.2917060885335014  0.7500000000000000
  0.2530681807623618  0.7469318192376383  0.9369051554505179
  0.7469318192376383  0.2530681807623618  0.4369051554505179
  0.7469318192376383  0.2530681807623618  0.0630948445494821
  0.2530681807623618  0.7469318192376383  0.5630948445494821
 
  0.00000000E+00  0.00000000E+00  0.00000000E+00
  0.00000000E+00  0.00000000E+00  0.00000000E+00
  0.00000000E+00  0.00000000E+00  0.00000000E+00
  0.00000000E+00  0.00000000E+00  0.00000000E+00
  0.00000000E+00  0.00000000E+00  0.00000000E+00
  0.00000000E+00  0.00000000E+00  0.00000000E+00
  0.00000000E+00  0.00000000E+00  0.00000000E+00
  0.00000000E+00  0.00000000E+00  0.00000000E+00
  0.00000000E+00  0.00000000E+00  0.00000000E+00
  0.00000000E+00  0.00000000E+00  0.00000000E+00
  0.00000000E+00  0.00000000E+00  0.00000000E+00
  0.00000000E+00  0.00000000E+00  0.00000000E+00
