Cr2 Cd2 O8
1.0
   2.8453240632   -4.3582474890    0.0000000000
   2.8453240632    4.3582474890    0.0000000000
   0.0000000000    0.0000000000    6.9771587000
Cr Cd O
2 2 8
direct
   0.6388189100    0.3611810900    0.2500000000 Cr
   0.3611810900    0.6388189100    0.7500000000 Cr
   0.0000000000    0.0000000000    0.5000000000 Cd
   0.0000000000    0.0000000000    0.0000000000 Cd
   0.7136517600    0.7711632000    0.7500000000 O
   0.2863482400    0.2288368000    0.2500000000 O
   0.7711632000    0.7136517600    0.2500000000 O
   0.2288368000    0.2863482400    0.7500000000 O
   0.2555442500    0.7444557500    0.9414021900 O
   0.7444557500    0.2555442500    0.4414021900 O
   0.7444557500    0.2555442500    0.0585978100 O
   0.2555442500    0.7444557500    0.5585978100 O
